
Gurobi 9.5.0 (linux64, gurobi_cl) logging started Tue Aug 20 14:43:54 2024

Set parameter Username
Set parameter LogFile to value "gurobi.log"
Academic license - for non-commercial use only - expires 2025-05-08
Using license file /home/mdomenec1/gurobi.lic
